# Solution for model GasLib-40
# Objective value = 1.0631380270791649e+01
loadshed[innode_1] 0
loadshed[innode_2] 0
loadshed[innode_3] 0
loadshed[innode_4] 0
loadshed[innode_5] 0
loadshed[innode_6] 0
loadshed[innode_7] 0
loadshed[innode_8] 0
loadshed[source_1] -2.1470704491954473e-01
loadshed[source_2] -4.4421983855095215e-02
loadshed[source_3] 3.2637782117486680e-01
loadshed[sink_1] 0
loadshed[sink_2] 0
loadshed[sink_3] 0
loadshed[sink_4] 0
loadshed[sink_5] 0
loadshed[sink_6] 0
loadshed[sink_7] 0
loadshed[sink_8] 0
loadshed[sink_9] 0
loadshed[sink_10] 0
loadshed[sink_11] 0
loadshed[sink_12] 6.5007165987006255e-01
loadshed[sink_13] 0
loadshed[sink_14] 0
loadshed[sink_15] 0
loadshed[sink_16] 0
loadshed[sink_17] 0
loadshed[sink_18] 0
loadshed[sink_19] 0
loadshed[sink_20] 0
loadshed[sink_21] 0
loadshed[sink_22] 0
loadshed[sink_23] 0
loadshed[sink_24] 0
loadshed[sink_25] 0
loadshed[sink_26] 0
loadshed[sink_27] 0
loadshed[sink_28] 0
loadshed[sink_29] 0
flow[source_1,sink_3] 1.9203337414995440e+02
flow[innode_1,sink_16] 1.6354166666666970e+01
flow[innode_6,sink_13] 7.9860492989429730e+00
flow[sink_13,sink_14] -8.3681173677236949e+00
flow[sink_14,sink_10] -2.4722284034390363e+01
flow[sink_25,sink_26] 1.5345405108603063e+02
flow[sink_26,sink_9] 1.3709988441936443e+02
flow[sink_9,sink_18] 1.2074571775269776e+02
flow[sink_26,sink_4] 0
flow[sink_4,sink_20] -6.4872901976513276e+01
flow[sink_18,sink_6] 1.0439155108603109e+02
flow[sink_25,innode_8] -1.5932504081661804e+02
flow[sink_6,sink_7] 5.5329051086030631e+01
flow[sink_6,sink_22] 3.2708333333333641e+01
flow[sink_7,sink_24] 3.8431119729208355e+01
flow[sink_22,sink_1] 1.6354166666666970e+01
flow[sink_24,sink_21] 2.2076953062541687e+01
flow[sink_21,sink_12] 5.7227863958750191e+00
flow[sink_7,sink_5] 5.4376469015532791e-01
flow[sink_5,sink_17] -1.5810401976511343e+01
flow[sink_17,sink_4] -4.8518735309846306e+01
flow[sink_17,sink_8] 1.6354166666668334e+01
flow[sink_3,sink_23] 16.3541666666697
flow[sink_8,sink_20] 0
flow[sink_25,sink_20] 8.1227068643179891e+01
flow[sink_25,sink_15] -9.9696294878201869e+01
flow[sink_15,sink_29] -6.4478441728947487e+01
flow[sink_29,sink_28] 1.6354166666667879e+01
flow[sink_29,sink_2] 67.9261864825877
flow[sink_2,sink_15] 5.1572019815921024e+01
flow[sink_29,innode_7] -1.6511296154486973e+02
flow[innode_4,sink_19] 90.1389507010575
flow[sink_19,innode_3] 3.6006663163378143e+01
flow[innode_4,innode_5] 1.6354166666679703e+01
flow[sink_27,innode_5] -1.6354166666679703e+01
flow[sink_27,sink_19] 0
flow[sink_10,sink_11] 3.2708333333333641e+01
flow[sink_10,innode_2] -3.7778120871012526e+01
flow[sink_10,innode_3] -3.6006663163378143e+01
flow[innode_6,sink_25] -7.9860492989429730e+00
flow[sink_11,innode_1] 1.6354166666666970e+01
flow[sink_19,innode_2] 3.7778120871012526e+01
flow[source_3,innode_4] 1.0649311736773720e+02
flow[source_2,innode_7] 1.6511296154486973e+02
flow[sink_3,innode_8] 1.5932504081661804e+02
pressure[innode_1] 75.2130604073589
pressure[innode_2] 7.7361491431744739e+01
pressure[innode_3] 7.7281758753481725e+01
pressure[innode_4] 81.01325
pressure[innode_5] 8.1002000741808772e+01
pressure[innode_6] 7.4224482690188722e+01
pressure[innode_7] 81.01325
pressure[innode_8] 8.0371355789624616e+01
pressure[source_1] 81.01325
pressure[source_2] 81.01325
pressure[source_3] 81.01325
pressure[sink_1] 4.5953439271903164e+01
pressure[sink_2] 7.4876478145003446e+01
pressure[sink_3] 8.0371355789624616e+01
pressure[sink_4] 5.0100820157327021e+01
pressure[sink_5] 4.7068833412986791e+01
pressure[sink_6] 4.8054516882290535e+01
pressure[sink_7] 4.7294980895376234e+01
pressure[sink_8] 4.7629508883955381e+01
pressure[sink_9] 5.5211022063205959e+01
pressure[sink_10] 7.5364761714962441e+01
pressure[sink_11] 75.2130604073589
pressure[sink_12] 1.0132500000000002e+00
pressure[sink_13] 7.4180456934996457e+01
pressure[sink_14] 74.195432393832
pressure[sink_15] 7.4708106866594548e+01
pressure[sink_16] 7.4191410572541216e+01
pressure[sink_17] 4.8246594079369004e+01
pressure[sink_18] 5.0842082110781362e+01
pressure[sink_19] 7.7361491431744739e+01
pressure[sink_20] 5.4860197888855382e+01
pressure[sink_21] 3.0497306089717964e+00
pressure[sink_22] 4.7017208414258171e+01
pressure[sink_23] 8.0206637777964829e+01
pressure[sink_24] 3.2942123522037492e+00
pressure[sink_25] 7.4224482690188722e+01
pressure[sink_26] 6.3416803990766191e+01
pressure[sink_27] 8.0866291377726043e+01
pressure[sink_28] 7.6301842834341272e+01
pressure[sink_29] 7.6597125107958448e+01
interdiction[source_1,sink_3] 0
interdiction[innode_1,sink_16] 0
interdiction[innode_6,sink_13] 0
interdiction[sink_13,sink_14] 0
interdiction[sink_14,sink_10] 0
interdiction[sink_25,sink_26] 0
interdiction[sink_26,sink_9] 0
interdiction[sink_9,sink_18] 0
interdiction[sink_26,sink_4] 1
interdiction[sink_4,sink_20] 0
interdiction[sink_18,sink_6] 0
interdiction[sink_25,innode_8] 0
interdiction[sink_6,sink_7] 0
interdiction[sink_6,sink_22] 0
interdiction[sink_7,sink_24] 0
interdiction[sink_22,sink_1] 0
interdiction[sink_24,sink_21] 0
interdiction[sink_21,sink_12] 0
interdiction[sink_7,sink_5] 0
interdiction[sink_5,sink_17] 0
interdiction[sink_17,sink_4] 0
interdiction[sink_17,sink_8] 0
interdiction[sink_3,sink_23] 0
interdiction[sink_8,sink_20] 1
interdiction[sink_25,sink_20] 0
interdiction[sink_25,sink_15] 0
interdiction[sink_15,sink_29] 0
interdiction[sink_29,sink_28] 0
interdiction[sink_29,sink_2] 0
interdiction[sink_2,sink_15] 0
interdiction[sink_29,innode_7] 0
interdiction[innode_4,sink_19] 0
interdiction[sink_19,innode_3] 0
interdiction[innode_4,innode_5] 0
interdiction[sink_27,innode_5] 0
interdiction[sink_27,sink_19] 1
interdiction[sink_10,sink_11] 0
interdiction[sink_10,innode_2] 0
interdiction[sink_10,innode_3] 0
interdiction[innode_6,sink_25] 0
interdiction[sink_11,innode_1] 0
interdiction[sink_19,innode_2] 0
interdiction[source_3,innode_4] 0
interdiction[source_2,innode_7] 0
interdiction[sink_3,innode_8] 0
WCcheckFlow[source_1,sink_3] 39
WCcheckFlow[innode_1,sink_16] 1
WCcheckFlow[innode_6,sink_13] 13
WCcheckFlow[sink_13,sink_14] 12
WCcheckFlow[sink_14,sink_10] 11
WCcheckFlow[sink_25,sink_26] 15
WCcheckFlow[sink_26,sink_9] 14
WCcheckFlow[sink_9,sink_18] 13
WCcheckFlow[sink_26,sink_4] 0
WCcheckFlow[sink_4,sink_20] 1
WCcheckFlow[sink_18,sink_6] 12
WCcheckFlow[sink_25,innode_8] -36
WCcheckFlow[sink_6,sink_7] 9
WCcheckFlow[sink_6,sink_22] 2
WCcheckFlow[sink_7,sink_24] 3
WCcheckFlow[sink_22,sink_1] 1
WCcheckFlow[sink_24,sink_21] 2
WCcheckFlow[sink_21,sink_12] 1
WCcheckFlow[sink_7,sink_5] 5
WCcheckFlow[sink_5,sink_17] 4
WCcheckFlow[sink_17,sink_4] 2
WCcheckFlow[sink_17,sink_8] 1
WCcheckFlow[sink_3,sink_23] 1
WCcheckFlow[sink_8,sink_20] 0
WCcheckFlow[sink_25,sink_20] 0
WCcheckFlow[sink_25,sink_15] 6
WCcheckFlow[sink_15,sink_29] 5
WCcheckFlow[sink_29,sink_28] 1
WCcheckFlow[sink_29,sink_2] 1
WCcheckFlow[sink_2,sink_15] 0
WCcheckFlow[sink_29,innode_7] 2
WCcheckFlow[innode_4,sink_19] -4
WCcheckFlow[sink_19,innode_3] -5
WCcheckFlow[innode_4,innode_5] 2
WCcheckFlow[sink_27,innode_5] -1
WCcheckFlow[sink_27,sink_19] 0
WCcheckFlow[sink_10,sink_11] 3
WCcheckFlow[sink_10,innode_2] 1
WCcheckFlow[sink_10,innode_3] 6
WCcheckFlow[innode_6,sink_25] -14
WCcheckFlow[sink_11,innode_1] 2
WCcheckFlow[sink_19,innode_2] 0
WCcheckFlow[source_3,innode_4] -1
WCcheckFlow[source_2,innode_7] -1
WCcheckFlow[sink_3,innode_8] 37
